p edge 100 495
e 1 8
e 1 11
e 1 13
e 1 18
e 1 22
e 1 41
e 1 43
e 1 51
e 1 52
e 1 54
e 1 86
e 1 87
e 1 95
e 2 8
e 2 12
e 2 21
e 2 30
e 2 31
e 2 74
e 2 75
e 2 80
e 2 81
e 2 87
e 3 7
e 3 32
e 3 42
e 3 51
e 3 52
e 3 53
e 3 58
e 3 68
e 3 73
e 3 86
e 3 89
e 3 94
e 4 25
e 4 47
e 4 68
e 4 72
e 4 88
e 4 95
e 5 20
e 5 23
e 5 25
e 5 26
e 5 41
e 5 51
e 5 58
e 5 66
e 5 81
e 5 87
e 5 91
e 6 9
e 6 24
e 6 33
e 6 35
e 6 57
e 6 87
e 6 91
e 6 92
e 6 98
e 7 18
e 7 20
e 7 26
e 7 63
e 7 64
e 7 70
e 7 73
e 7 88
e 7 92
e 7 95
e 8 24
e 8 36
e 8 38
e 8 49
e 8 52
e 9 13
e 9 21
e 9 24
e 9 34
e 9 38
e 9 42
e 9 53
e 9 59
e 9 69
e 9 81
e 9 88
e 9 98
e 10 46
e 10 53
e 10 55
e 10 63
e 10 73
e 10 75
e 10 84
e 10 87
e 10 95
e 10 97
e 10 98
e 11 34
e 11 55
e 11 60
e 11 64
e 11 67
e 11 77
e 11 83
e 11 90
e 11 96
e 12 31
e 12 37
e 12 42
e 12 44
e 12 53
e 12 56
e 12 63
e 12 79
e 12 81
e 12 94
e 13 27
e 13 28
e 13 36
e 13 37
e 13 44
e 13 49
e 13 57
e 13 58
e 13 70
e 13 73
e 13 76
e 13 81
e 13 83
e 13 86
e 13 94
e 14 22
e 14 23
e 14 24
e 14 29
e 14 35
e 14 52
e 14 81
e 15 19
e 15 34
e 15 47
e 15 52
e 15 77
e 15 98
e 16 21
e 16 39
e 16 50
e 16 55
e 16 56
e 16 67
e 16 68
e 16 70
e 16 73
e 16 80
e 16 96
e 17 33
e 17 42
e 17 45
e 17 87
e 18 21
e 18 32
e 18 38
e 18 45
e 18 52
e 18 55
e 18 68
e 18 80
e 18 87
e 18 97
e 19 25
e 19 36
e 19 50
e 19 55
e 19 66
e 19 68
e 19 76
e 19 78
e 19 83
e 19 84
e 19 93
e 20 43
e 20 76
e 20 87
e 20 89
e 20 99
e 21 25
e 21 27
e 21 33
e 21 46
e 21 54
e 21 73
e 21 81
e 21 91
e 21 94
e 22 38
e 22 40
e 22 47
e 22 57
e 22 97
e 23 25
e 23 33
e 23 40
e 23 58
e 23 60
e 23 66
e 23 71
e 23 85
e 24 34
e 24 63
e 24 73
e 24 74
e 24 76
e 24 83
e 24 98
e 25 30
e 25 36
e 25 37
e 25 39
e 25 83
e 25 98
e 26 31
e 26 50
e 26 55
e 26 86
e 26 88
e 26 100
e 27 30
e 27 40
e 27 41
e 27 44
e 27 71
e 27 79
e 27 89
e 27 96
e 28 29
e 28 36
e 28 38
e 28 83
e 28 86
e 28 97
e 29 31
e 29 50
e 29 56
e 29 97
e 30 39
e 30 47
e 30 71
e 30 77
e 30 81
e 30 87
e 30 95
e 30 100
e 31 39
e 31 61
e 31 78
e 31 84
e 31 94
e 32 46
e 32 48
e 32 77
e 33 36
e 33 51
e 33 52
e 33 60
e 33 65
e 33 83
e 33 91
e 34 42
e 34 45
e 34 56
e 34 58
e 34 59
e 34 73
e 34 78
e 34 79
e 34 85
e 34 95
e 34 96
e 34 97
e 35 37
e 35 38
e 35 41
e 35 54
e 35 61
e 35 88
e 35 94
e 35 96
e 35 99
e 36 38
e 36 49
e 36 52
e 36 72
e 36 74
e 36 75
e 36 80
e 36 88
e 37 82
e 37 86
e 37 96
e 38 46
e 38 51
e 38 67
e 38 79
e 38 93
e 39 69
e 40 41
e 40 49
e 40 54
e 40 63
e 40 65
e 40 83
e 40 97
e 40 99
e 41 42
e 41 51
e 41 58
e 41 67
e 41 71
e 42 47
e 42 57
e 42 76
e 42 87
e 42 89
e 42 94
e 42 95
e 42 96
e 42 99
e 43 52
e 43 59
e 43 61
e 43 66
e 43 72
e 43 83
e 43 90
e 44 54
e 44 57
e 44 62
e 44 80
e 44 86
e 44 98
e 45 49
e 45 69
e 45 71
e 45 74
e 45 76
e 45 93
e 45 96
e 46 48
e 46 51
e 46 53
e 46 59
e 46 77
e 46 78
e 46 82
e 46 94
e 47 59
e 47 78
e 47 80
e 47 81
e 47 85
e 47 89
e 47 92
e 48 53
e 48 74
e 48 81
e 49 59
e 49 62
e 49 63
e 49 68
e 49 76
e 49 81
e 49 84
e 49 93
e 50 54
e 50 66
e 50 82
e 51 59
e 51 74
e 51 80
e 51 94
e 51 98
e 52 53
e 52 58
e 52 83
e 52 91
e 53 59
e 53 65
e 53 98
e 54 61
e 54 81
e 54 90
e 54 93
e 55 99
e 56 66
e 56 74
e 56 82
e 56 90
e 56 95
e 56 100
e 57 68
e 57 72
e 57 76
e 57 78
e 57 82
e 57 94
e 57 97
e 57 100
e 58 68
e 58 91
e 59 71
e 59 72
e 59 83
e 59 84
e 59 96
e 60 63
e 60 77
e 61 75
e 61 76
e 61 81
e 62 63
e 62 72
e 62 81
e 62 87
e 62 99
e 63 78
e 64 67
e 64 73
e 64 75
e 64 78
e 64 84
e 64 91
e 65 68
e 65 76
e 65 84
e 65 95
e 65 99
e 66 69
e 66 77
e 66 79
e 66 88
e 66 91
e 67 83
e 68 80
e 68 91
e 69 72
e 69 85
e 70 77
e 70 86
e 70 93
e 70 94
e 70 97
e 71 83
e 71 96
e 71 97
e 73 82
e 73 91
e 73 95
e 74 77
e 74 78
e 74 85
e 75 78
e 75 84
e 76 87
e 77 82
e 77 98
e 78 100
e 79 80
e 79 84
e 79 95
e 80 91
e 80 94
e 81 83
e 81 96
e 82 88
e 82 98
e 83 98
e 84 95
e 84 100
e 85 92
e 85 94
e 85 97
e 85 98
e 85 99
e 85 100
e 88 97
e 89 92
e 89 100
e 92 93
e 92 97
e 93 97
e 93 98
e 95 99
e 99 100
